Copyright (C) 2013-2015, Filipe Brandao
Build (method = -2)
  #dp: 30455
  Step-3' Graph: 264 vertices and 9710 arcs (0.05s)
  Step-4' Graph: 234 vertices and 9650 arcs (0.05s)
  #V4/#V3 = 0.89
  #A4/#A3 = 0.99
Ready! (0.05s)
Optimize a model with 476 rows, 9651 columns and 28492 nonzeros
Presolve removed 125 rows and 144 columns
Presolve time: 0.05s
Presolved: 351 rows, 9507 columns, 27339 nonzeros
Variable types: 0 continuous, 9507 integer (4422 binary)
Found heuristic solution: objective 403.0000000
Optimize a model with 351 rows, 9507 columns and 27339 nonzeros
Presolved: 351 rows, 9507 columns, 27339 nonzeros

Root barrier log...

Ordering time: 0.00s

Barrier statistics:
 AA' NZ     : 1.480e+04
 Factor NZ  : 2.960e+04 (roughly 4 MBytes of memory)
 Factor Ops : 3.568e+06 (less than 1 second per iteration)
 Threads    : 1

                  Objective                Residual
Iter       Primal          Dual         Primal    Dual     Compl     Time
   0   1.59138209e+04 -1.03502223e+05  2.07e+05 1.70e-01  5.28e+01     0s
   1   4.12655506e+03 -2.19768261e+04  2.91e+04 6.66e-16  7.78e+00     0s
   2   1.00682204e+03 -6.70196238e+03  2.95e+03 6.66e-16  1.00e+00     0s
   3   5.16754478e+02 -1.29630803e+03  2.32e+02 7.22e-16  1.31e-01     0s
   4   3.58780868e+02 -1.38897790e+02  4.83e+01 7.36e-16  3.20e-02     0s
   5   3.22345543e+02  3.51671504e+00  2.23e+01 7.51e-16  1.92e-02     0s
   6   3.12655780e+02  5.41477618e+01  1.26e+01 1.12e-15  1.48e-02     0s
   7   2.94789564e+02  1.11870758e+02  6.04e+00 8.26e-16  1.02e-02     0s
   8   2.69788499e+02  2.00108985e+02  1.33e+00 5.71e-16  3.77e-03     0s
   9   2.59233299e+02  2.42029458e+02  1.43e-01 6.03e-16  9.15e-04     0s
  10   2.57874446e+02  2.56739815e+02  2.05e-02 7.72e-16  6.16e-05     0s
  11   2.57509983e+02  2.57491664e+02  2.37e-04 6.44e-16  9.85e-07     0s
  12   2.57500000e+02  2.57500000e+02  6.96e-10 6.79e-16  5.25e-12     0s
  13   2.57500000e+02  2.57500000e+02  9.59e-13 5.86e-16  3.02e-17     0s

Barrier solved model in 13 iterations and 0.07 seconds
Optimal objective 2.57500000e+02


Root relaxation: objective 2.575000e+02, 2014 iterations, 0.08 seconds

    Nodes    |    Current Node    |     Objective Bounds      |     Work
 Expl Unexpl |  Obj  Depth IntInf | Incumbent    BestBd   Gap | It/Node Time

     0     0  257.50000    0    2  403.00000  257.50000  36.1%     -    0s
H    0     0                     258.0000000  257.50000  0.19%     -    0s

Explored 0 nodes (2413 simplex iterations) in 0.22 seconds
Thread count was 1 (of 4 available processors)

Optimal solution found (tolerance 0.00e+00)
Best objective 2.580000000000e+02, best bound 2.580000000000e+02, gap 0.0%
Preprocessing time: 0.06 seconds
Gurobi run time: 0.22 seconds
Total run time: 0.28 seconds
Objective: 258
Solution:
3 x [i=1, i=242]
2 x [i=2, i=239]
2 x [i=2, i=240]
1 x [i=3, i=238]
2 x [i=4, i=241]
1 x [i=5, i=237]
2 x [i=6, i=235]
1 x [i=7, i=234]
2 x [i=8, i=236]
1 x [i=9, i=231]
1 x [i=10, i=230]
1 x [i=11, i=229]
1 x [i=12, i=229]
2 x [i=13, i=227]
4 x [i=14, i=226]
2 x [i=15, i=228]
4 x [i=16, i=232]
2 x [i=17, i=224]
1 x [i=18, i=224]
2 x [i=19, i=221]
2 x [i=20, i=222]
1 x [i=21, i=220]
2 x [i=22, i=219]
4 x [i=23, i=223]
1 x [i=24, i=218]
1 x [i=25, i=225]
1 x [i=26, i=230]
3 x [i=27, i=215]
1 x [i=28, i=213]
2 x [i=29, i=212]
3 x [i=30, i=211]
1 x [i=31, i=210]
4 x [i=32]
1 x [i=32, i=209]
2 x [i=33, i=208]
1 x [i=34, i=207]
6 x [i=35]
2 x [i=36, i=203]
2 x [i=37, i=202]
3 x [i=38, i=216]
1 x [i=39, i=204]
2 x [i=40, i=201]
1 x [i=41, i=214]
1 x [i=42, i=199]
4 x [i=43, i=206]
3 x [i=44, i=196]
1 x [i=45, i=194]
2 x [i=46, i=205]
1 x [i=47, i=192]
1 x [i=48, i=193]
1 x [i=49, i=231]
3 x [i=50, i=195]
1 x [i=50, i=233]
1 x [i=51, i=189]
2 x [i=52, i=190]
5 x [i=53, i=204]
1 x [i=54, i=188]
2 x [i=55, i=191]
3 x [i=56, i=186]
1 x [i=56, i=235]
1 x [i=57, i=242]
3 x [i=58, i=185]
2 x [i=59, i=217]
1 x [i=60, i=182]
1 x [i=60, i=183]
1 x [i=61, i=184]
3 x [i=62, i=181]
2 x [i=63, i=180]
3 x [i=64, i=187]
2 x [i=65, i=176]
3 x [i=66, i=175]
3 x [i=67, i=197]
3 x [i=68, i=198]
1 x [i=69, i=174]
1 x [i=69, i=177]
3 x [i=70, i=200]
1 x [i=71, i=171]
3 x [i=72, i=171]
1 x [i=73, i=170]
2 x [i=73, i=173]
1 x [i=74, i=172]
1 x [i=75, i=168]
2 x [i=75, i=169]
1 x [i=76, i=167]
1 x [i=77, i=166]
2 x [i=77, i=175]
1 x [i=78, i=178]
2 x [i=79, i=164]
3 x [i=80, i=165]
1 x [i=81, i=163]
1 x [i=82, i=162]
1 x [i=82, i=179]
1 x [i=83]
2 x [i=84, i=160]
2 x [i=84, i=161]
2 x [i=85, i=159]
1 x [i=86]
1 x [i=87]
1 x [i=88, i=158]
1 x [i=89, i=157]
2 x [i=89, i=159]
1 x [i=90, i=156]
1 x [i=91, i=155]
1 x [i=91, i=156]
1 x [i=92, i=154]
1 x [i=93, i=152]
3 x [i=94, i=151]
1 x [i=95, i=150]
1 x [i=95, i=153]
3 x [i=96, i=151]
1 x [i=97, i=153]
1 x [i=98, i=148]
2 x [i=99, i=148]
1 x [i=99, i=149]
2 x [i=100]
3 x [i=101, i=146]
2 x [i=102, i=147]
4 x [i=103, i=143]
1 x [i=104, i=141]
1 x [i=104, i=147]
1 x [i=105, i=139]
1 x [i=105, i=142]
1 x [i=105, i=143]
1 x [i=106, i=138]
1 x [i=106, i=144]
1 x [i=107, i=145]
1 x [i=108, i=140]
1 x [i=109, i=136]
1 x [i=109, i=137]
1 x [i=109, i=142]
2 x [i=110, i=134]
1 x [i=110, i=135]
1 x [i=111, i=133]
1 x [i=112, i=135]
3 x [i=113, i=130]
2 x [i=114, i=130]
1 x [i=114, i=132]
1 x [i=115, i=131]
1 x [i=115, i=139]
1 x [i=116, i=133]
2 x [i=117, i=128]
1 x [i=118, i=126]
2 x [i=118, i=127]
1 x [i=118, i=128]
1 x [i=118, i=129]
3 x [i=119, i=125]
1 x [i=120, i=124]
1 x [i=121, i=123]
2 x [i=122, i=123]
1 x [i=123, i=124]
1 x [i=124]
